49
315

[1.32 1.08 4.05 3.9 2.99 2.48 2.39 0.92 3.37 3.92 3.16 2.18 1.93 3.51 3.7 1.0 4.21 0.26 1.27 1.37 3.07 3.1 4.13 2.65 1.55 1.84 3.97 1.1 1.33 0.33 1.1 3.98 3.69 2.79 4.33 4.11 3.74 4.03 2.91 1.72 2.55 1.65 2.1 1.58 0.73 3.92 2.38 3.6 2.48 0.03 2.75 3.36 1.4 0.12 0.4 1.12 2.7 3.64 0.04 3.0 0.6 4.06 2.72 4.33 1.19 2.6 2.29 3.21 2.75 2.63 4.24 2.67]

[69 2 66 18 4 68 25 60 26 9 95 93 63 57 21 3 15 26 60 54 73 27 33 47 34 87 58 62 78 51 30 76 79 34 74 74 15 46 52 17 31 85 25 35 54 24 92 32 94 25 14 90 64 24 93 75 3 38 77 12 27 65 9 88 57 52 19 99 58 87 11 25]
